benchmark_num_str/p1_4_10-0.txt
{
	"num_strings": 4,
	"alphabet": "ACGT",
	"strings": [
		"CAACCCAAAG",
		"AAAAACAAAA",
		"AAAACCACCA",
		"GAGCGACACA"
	],
	"str_length":[10,10,10,10]
}